<number of tasks>
1000

<cycle time>
1000

<order strength>
0,896


<task times>
1 766
2 340
3 569
4 484
5 405
6 463
7 396
8 235
9 770
10 604
11 403
12 410
13 512
14 344
15 434
16 642
17 565
18 532
19 651
20 687
21 404
22 521
23 639
24 596
25 372
26 353
27 409
28 536
29 562
30 466
31 378
32 366
33 537
34 394
35 617
36 305
37 633
38 462
39 272
40 678
41 557
42 402
43 333
44 617
45 569
46 385
47 353
48 471
49 468
50 663
51 801
52 512
53 668
54 437
55 598
56 319
57 522
58 424
59 483
60 540
61 652
62 482
63 413
64 449
65 390
66 324
67 597
68 537
69 405
70 448
71 547
72 559
73 493
74 340
75 669
76 531
77 327
78 675
79 444
80 610
81 334
82 689
83 364
84 507
85 494
86 744
87 406
88 263
89 293
90 405
91 588
92 351
93 391
94 281
95 646
96 341
97 584
98 731
99 334
100 691
101 505
102 482
103 381
104 569
105 518
106 697
107 509
108 430
109 451
110 568
111 756
112 585
113 620
114 662
115 521
116 374
117 446
118 501
119 573
120 424
121 512
122 481
123 570
124 524
125 511
126 414
127 530
128 508
129 498
130 662
131 580
132 699
133 352
134 601
135 645
136 512
137 564
138 378
139 390
140 590
141 568
142 504
143 563
144 678
145 604
146 404
147 345
148 469
149 520
150 417
151 580
152 533
153 568
154 485
155 434
156 528
157 582
158 368
159 643
160 494
161 492
162 545
163 402
164 440
165 510
166 454
167 490
168 530
169 534
170 275
171 812
172 532
173 629
174 544
175 381
176 406
177 555
178 685
179 574
180 468
181 726
182 613
183 582
184 349
185 445
186 492
187 501
188 467
189 427
190 528
191 482
192 564
193 622
194 546
195 613
196 473
197 377
198 534
199 566
200 642
201 448
202 488
203 529
204 262
205 435
206 211
207 472
208 527
209 581
210 629
211 423
212 350
213 560
214 610
215 376
216 459
217 525
218 402
219 498
220 418
221 546
222 458
223 275
224 606
225 365
226 431
227 618
228 658
229 337
230 599
231 435
232 633
233 477
234 548
235 782
236 424
237 674
238 483
239 570
240 630
241 285
242 528
243 636
244 588
245 710
246 547
247 781
248 840
249 540
250 480
251 608
252 527
253 429
254 544
255 509
256 557
257 453
258 448
259 433
260 475
261 534
262 213
263 682
264 338
265 479
266 452
267 415
268 647
269 507
270 644
271 603
272 347
273 571
274 520
275 397
276 513
277 657
278 573
279 155
280 552
281 338
282 386
283 391
284 304
285 593
286 540
287 552
288 660
289 483
290 699
291 698
292 576
293 691
294 559
295 516
296 370
297 724
298 371
299 517
300 568
301 366
302 492
303 463
304 701
305 293
306 522
307 605
308 328
309 433
310 567
311 453
312 528
313 568
314 530
315 450
316 386
317 520
318 491
319 674
320 546
321 467
322 575
323 664
324 572
325 495
326 570
327 384
328 576
329 436
330 325
331 456
332 682
333 581
334 580
335 551
336 607
337 590
338 373
339 301
340 514
341 641
342 558
343 586
344 543
345 407
346 436
347 560
348 631
349 444
350 276
351 663
352 639
353 574
354 550
355 749
356 435
357 590
358 539
359 476
360 722
361 760
362 707
363 614
364 329
365 261
366 330
367 740
368 528
369 454
370 448
371 508
372 345
373 520
374 466
375 391
376 311
377 532
378 429
379 558
380 630
381 580
382 518
383 709
384 694
385 493
386 470
387 348
388 321
389 401
390 644
391 518
392 578
393 617
394 402
395 433
396 547
397 617
398 563
399 289
400 647
401 578
402 351
403 742
404 426
405 734
406 644
407 544
408 597
409 465
410 536
411 531
412 350
413 501
414 561
415 515
416 564
417 550
418 574
419 660
420 468
421 513
422 445
423 498
424 617
425 729
426 353
427 506
428 542
429 527
430 512
431 350
432 435
433 793
434 600
435 750
436 321
437 603
438 643
439 529
440 287
441 606
442 475
443 382
444 465
445 624
446 337
447 507
448 549
449 526
450 592
451 399
452 412
453 448
454 660
455 615
456 508
457 608
458 781
459 613
460 532
461 371
462 370
463 525
464 455
465 432
466 740
467 387
468 473
469 368
470 532
471 625
472 379
473 415
474 509
475 329
476 565
477 474
478 439
479 487
480 518
481 500
482 440
483 556
484 606
485 507
486 232
487 410
488 358
489 378
490 230
491 463
492 461
493 654
494 207
495 481
496 438
497 432
498 495
499 371
500 400
501 695
502 575
503 544
504 519
505 634
506 774
507 556
508 641
509 563
510 660
511 402
512 431
513 485
514 561
515 454
516 578
517 568
518 675
519 469
520 446
521 486
522 460
523 420
524 484
525 717
526 761
527 313
528 209
529 567
530 562
531 528
532 433
533 359
534 329
535 622
536 496
537 651
538 676
539 405
540 447
541 284
542 576
543 419
544 327
545 605
546 420
547 614
548 607
549 577
550 691
551 543
552 422
553 624
554 583
555 385
556 384
557 596
558 276
559 440
560 518
561 494
562 346
563 634
564 639
565 654
566 690
567 219
568 512
569 448
570 494
571 367
572 594
573 658
574 467
575 609
576 535
577 453
578 424
579 601
580 438
581 442
582 206
583 515
584 643
585 470
586 585
587 496
588 364
589 339
590 677
591 389
592 374
593 615
594 408
595 537
596 570
597 771
598 476
599 597
600 507
601 504
602 636
603 251
604 373
605 255
606 378
607 332
608 666
609 303
610 500
611 563
612 468
613 613
614 489
615 500
616 619
617 533
618 513
619 571
620 426
621 485
622 762
623 704
624 654
625 428
626 554
627 536
628 629
629 325
630 448
631 547
632 456
633 334
634 369
635 551
636 641
637 434
638 552
639 599
640 648
641 496
642 466
643 272
644 609
645 440
646 617
647 698
648 430
649 593
650 395
651 566
652 566
653 481
654 338
655 360
656 632
657 526
658 459
659 379
660 410
661 622
662 315
663 384
664 521
665 508
666 513
667 735
668 640
669 627
670 327
671 353
672 636
673 646
674 397
675 401
676 362
677 463
678 499
679 446
680 373
681 575
682 549
683 578
684 616
685 543
686 591
687 642
688 355
689 507
690 423
691 579
692 427
693 482
694 534
695 435
696 592
697 472
698 411
699 475
700 652
701 431
702 602
703 454
704 155
705 457
706 553
707 413
708 441
709 527
710 470
711 347
712 362
713 529
714 415
715 542
716 423
717 550
718 662
719 291
720 524
721 409
722 631
723 592
724 478
725 662
726 439
727 449
728 409
729 537
730 341
731 471
732 285
733 573
734 745
735 460
736 712
737 338
738 311
739 633
740 534
741 618
742 436
743 396
744 535
745 388
746 256
747 287
748 588
749 443
750 493
751 682
752 609
753 594
754 523
755 623
756 535
757 496
758 422
759 546
760 394
761 251
762 480
763 307
764 380
765 265
766 479
767 836
768 559
769 685
770 560
771 580
772 477
773 216
774 283
775 598
776 454
777 432
778 522
779 353
780 449
781 399
782 563
783 462
784 433
785 449
786 617
787 522
788 353
789 458
790 504
791 392
792 503
793 485
794 486
795 489
796 380
797 428
798 266
799 695
800 504
801 483
802 436
803 434
804 505
805 342
806 286
807 520
808 481
809 348
810 524
811 392
812 599
813 611
814 468
815 603
816 488
817 358
818 616
819 590
820 560
821 472
822 467
823 378
824 551
825 277
826 474
827 373
828 477
829 426
830 397
831 413
832 549
833 409
834 659
835 601
836 546
837 539
838 543
839 579
840 403
841 288
842 331
843 573
844 436
845 396
846 635
847 616
848 675
849 446
850 376
851 568
852 652
853 329
854 256
855 466
856 624
857 454
858 360
859 326
860 442
861 582
862 269
863 469
864 532
865 483
866 531
867 444
868 558
869 390
870 757
871 581
872 414
873 514
874 626
875 473
876 659
877 725
878 459
879 607
880 384
881 680
882 390
883 439
884 716
885 455
886 755
887 495
888 445
889 242
890 330
891 438
892 550
893 419
894 575
895 490
896 569
897 390
898 584
899 449
900 297
901 343
902 435
903 521
904 351
905 405
906 568
907 302
908 220
909 396
910 401
911 405
912 655
913 542
914 594
915 373
916 418
917 329
918 518
919 390
920 359
921 414
922 316
923 461
924 464
925 648
926 388
927 394
928 381
929 631
930 614
931 523
932 496
933 530
934 618
935 482
936 469
937 710
938 589
939 657
940 474
941 417
942 458
943 540
944 477
945 558
946 483
947 481
948 341
949 418
950 508
951 380
952 350
953 653
954 575
955 519
956 645
957 346
958 496
959 464
960 408
961 440
962 531
963 585
964 669
965 403
966 624
967 517
968 314
969 434
970 723
971 464
972 393
973 509
974 628
975 448
976 552
977 442
978 527
979 570
980 421
981 537
982 435
983 537
984 633
985 496
986 415
987 401
988 447
989 452
990 209
991 446
992 430
993 531
994 401
995 549
996 587
997 470
998 451
999 639
1000 713

<precedence relations>
1,11
1,12
1,13
1,14
2,7
2,8
2,9
2,10
2,11
3,7
3,8
3,20
3,21
4,7
4,8
4,9
4,10
4,11
4,12
5,7
5,8
5,9
5,10
5,11
5,12
5,13
5,14
6,7
6,8
6,9
6,13
7,60
8,15
8,17
9,15
9,16
9,17
9,18
9,19
9,21
10,15
10,16
10,17
10,18
10,19
10,20
10,21
11,79
11,95
12,15
12,16
12,17
12,18
12,19
12,20
12,21
13,15
13,18
14,16
14,19
14,20
14,21
14,27
14,29
15,22
15,23
15,24
15,25
15,26
15,27
15,28
15,29
15,30
16,22
16,23
17,22
17,24
18,22
18,23
18,24
18,25
18,26
18,27
18,28
18,29
19,22
20,22
20,28
20,30
21,22
21,23
21,30
22,31
22,32
22,33
22,36
22,41
23,31
23,32
23,33
23,34
23,35
23,36
24,31
24,32
24,33
24,34
24,35
24,36
25,31
25,32
25,33
25,34
25,35
25,36
26,31
26,32
26,33
26,34
26,35
26,36
27,31
28,31
29,31
29,32
29,33
29,34
29,35
30,35
31,37
31,38
31,39
31,48
32,37
32,38
32,40
32,42
33,47
33,119
33,120
33,121
34,37
34,38
34,39
34,40
34,41
34,42
35,37
35,38
35,39
35,40
35,41
35,42
36,37
36,39
37,43
37,44
37,45
37,47
37,50
37,51
38,49
38,51
39,43
39,44
39,50
39,51
40,43
40,44
40,45
40,46
40,47
40,48
40,49
40,50
40,51
41,43
41,44
42,43
42,44
42,45
42,46
43,52
43,53
43,54
43,55
43,56
44,52
45,52
45,53
45,54
45,55
45,56
46,52
47,118
48,52
48,55
49,52
49,53
50,52
50,53
51,52
51,53
52,57
52,58
52,63
52,64
53,57
53,58
53,59
53,60
54,57
54,58
54,59
54,60
55,57
55,58
55,59
55,60
56,57
56,58
56,59
56,60
57,61
57,62
57,65
57,66
58,61
58,66
59,64
60,61
60,62
60,63
60,64
60,65
61,67
61,68
61,69
61,70
61,71
61,72
62,440
63,67
63,68
63,69
63,72
64,67
64,68
64,69
64,71
64,72
65,67
65,68
66,67
66,68
67,73
67,74
67,75
67,76
67,77
68,73
68,74
68,75
69,73
69,74
69,75
69,76
69,77
70,73
70,74
70,75
71,73
71,77
72,73
73,78
73,79
74,78
75,78
75,79
76,78
76,79
76,80
76,81
76,82
77,78
77,79
77,80
77,81
77,82
78,83
78,88
78,95
78,96
79,83
79,84
79,85
79,86
79,89
80,85
80,86
80,87
80,88
80,90
81,84
81,93
82,83
82,84
82,85
82,102
83,91
83,92
83,93
83,103
84,91
84,92
84,103
84,104
85,91
85,92
85,93
86,93
86,96
87,176
87,182
87,183
88,91
88,92
88,93
89,91
89,92
89,93
89,94
89,102
89,103
90,91
90,92
90,95
90,102
91,97
91,98
91,99
91,100
91,101
91,105
92,97
92,98
92,99
92,100
92,101
93,97
93,98
93,99
93,100
93,101
93,104
94,97
94,101
94,105
95,97
95,103
96,97
96,98
96,102
97,106
97,107
97,112
97,113
98,106
98,107
98,109
98,112
98,113
99,106
99,107
99,108
99,113
100,106
100,107
100,108
100,109
100,110
100,111
101,170
102,107
102,113
103,106
103,107
103,111
103,112
103,113
104,106
104,107
104,108
104,109
104,110
104,111
104,112
104,113
105,106
105,107
105,109
105,110
105,111
105,112
105,113
106,114
106,115
106,116
106,117
107,114
107,115
107,116
107,117
108,114
108,115
108,116
108,117
109,114
109,115
109,116
109,117
110,114
110,115
110,116
110,117
111,114
111,115
111,116
111,117
112,114
112,115
112,116
112,117
113,114
113,115
113,116
113,117
114,118
114,119
114,120
114,121
115,118
115,119
115,120
115,121
116,118
116,119
116,120
116,121
117,118
117,119
117,120
117,121
118,122
118,123
118,124
118,125
118,126
118,127
118,128
118,129
119,122
119,123
119,124
119,125
119,126
119,127
119,128
119,129
120,122
120,123
120,124
120,125
120,126
120,127
120,128
120,129
121,122
121,123
121,124
121,125
121,126
121,127
121,128
121,129
122,130
122,131
122,132
122,133
122,134
122,135
123,130
123,131
123,132
123,133
123,134
123,135
124,130
124,131
124,132
124,133
124,134
124,135
125,130
125,131
125,132
125,133
125,134
125,135
126,130
126,131
126,132
126,133
126,134
126,135
127,130
127,131
127,132
127,133
127,134
127,135
128,130
128,131
128,132
128,133
128,134
128,135
129,130
129,131
129,132
129,133
129,134
129,135
130,136
130,137
131,136
131,137
132,136
132,137
133,136
133,137
134,136
134,137
135,136
135,137
136,138
136,139
136,140
136,141
136,142
136,143
136,144
136,145
136,146
136,147
137,138
137,139
137,140
137,141
137,142
137,143
137,144
137,145
137,146
137,147
138,148
138,149
138,150
138,151
138,152
138,153
138,154
139,148
139,149
139,150
139,151
139,152
139,153
139,154
140,148
140,149
140,150
140,151
140,152
140,153
140,154
141,148
141,153
142,148
142,149
142,159
143,148
143,149
143,150
143,152
144,148
144,151
144,153
145,148
145,149
145,150
145,151
146,148
146,149
146,150
146,151
146,153
146,154
147,148
147,149
147,150
147,151
147,152
147,153
147,154
148,155
148,156
148,157
148,158
149,156
150,155
150,156
150,157
150,158
150,159
151,155
151,156
151,157
151,159
152,155
152,156
152,158
152,159
152,164
153,155
153,156
153,157
153,159
154,157
155,160
155,161
155,162
155,163
156,160
156,163
156,165
157,160
157,161
157,162
157,164
158,160
158,161
158,165
159,160
159,161
159,162
159,165
160,166
160,167
160,168
160,169
160,170
160,171
161,166
162,167
162,168
162,169
162,170
163,171
163,183
164,166
164,167
164,171
165,166
166,172
166,174
167,172
167,173
167,174
167,175
167,176
167,177
167,178
167,179
168,172
168,179
168,183
168,184
169,172
169,173
169,174
169,175
169,176
170,172
170,175
170,177
170,179
171,172
171,173
172,186
173,180
173,182
173,184
174,251
175,180
175,181
175,183
176,180
176,181
176,184
177,180
177,181
177,182
177,183
177,184
178,180
178,181
179,180
179,181
180,185
180,186
180,187
180,188
180,190
181,185
181,186
181,187
181,188
181,189
181,190
182,185
182,186
182,187
182,189
183,190
184,185
184,186
184,194
185,191
185,195
185,196
186,191
186,192
186,196
187,191
187,192
187,193
187,194
187,196
188,191
188,192
188,194
188,196
189,191
189,192
189,193
189,194
189,195
189,196
190,191
190,192
190,194
190,195
190,196
191,197
191,198
191,199
191,200
191,201
191,202
192,197
192,198
192,199
192,200
192,202
193,200
194,197
194,202
195,198
196,199
196,201
197,203
197,204
197,205
197,206
197,207
197,208
198,203
198,204
198,205
198,206
198,207
198,208
199,207
199,208
200,203
201,203
201,204
201,216
202,203
202,204
202,205
203,209
203,210
203,213
204,209
204,210
204,211
204,224
205,209
205,210
205,211
205,212
205,213
206,209
206,210
206,211
206,212
206,213
206,214
207,210
207,212
207,214
207,215
207,216
207,221
208,209
208,210
208,211
208,212
208,213
208,214
208,215
208,216
209,217
209,218
209,219
209,220
210,217
210,218
210,219
210,220
210,223
210,225
211,217
211,218
211,219
211,220
211,221
211,222
212,222
213,217
213,220
214,217
214,218
214,219
215,217
215,218
215,224
216,217
216,218
217,226
217,229
218,226
218,227
218,232
218,233
219,226
219,227
219,228
219,229
220,226
220,227
220,228
220,229
220,230
220,231
220,232
220,233
221,226
221,227
221,228
221,229
222,228
222,230
222,232
223,226
223,227
224,226
224,227
224,228
224,229
224,230
224,231
224,233
225,226
225,227
225,228
226,234
226,235
226,236
226,237
226,238
226,239
227,302
228,234
228,237
229,234
229,235
229,236
229,252
229,253
230,234
230,235
231,234
231,235
231,236
231,237
231,238
232,234
232,235
232,236
232,237
233,234
233,235
233,236
233,237
233,238
233,239
234,240
234,241
234,242
234,243
235,240
235,241
235,242
236,240
236,241
236,242
236,243
236,244
237,240
237,241
237,242
237,243
237,244
237,245
238,244
238,246
239,240
239,241
239,245
240,249
241,247
241,248
241,249
241,250
241,254
242,247
242,248
242,249
242,250
242,251
243,248
243,271
244,247
244,275
244,290
245,247
245,248
245,251
245,253
246,252
247,255
247,256
247,257
247,258
248,255
248,256
248,257
248,258
248,259
248,260
248,261
249,255
249,256
249,257
250,639
251,255
251,256
251,257
251,262
252,260
253,255
253,256
253,257
253,258
253,259
254,255
254,256
254,257
254,259
255,263
256,263
256,264
256,265
257,263
257,292
257,293
258,263
258,264
258,265
258,266
258,270
259,263
259,265
259,292
260,263
260,264
260,265
260,266
260,267
260,268
261,263
261,264
261,265
261,266
261,267
261,269
262,263
262,264
262,265
262,266
262,267
262,268
262,269
262,271
263,297
263,298
264,272
264,273
264,274
265,272
265,273
266,272
266,273
266,276
267,272
267,273
267,275
267,277
268,272
268,273
268,274
269,274
269,292
270,272
270,273
270,292
271,272
271,284
272,278
272,282
273,278
273,284
274,278
274,279
274,283
274,286
275,336
276,285
276,292
277,278
277,279
277,280
277,281
277,282
278,287
278,288
278,293
279,287
279,291
279,293
280,405
281,290
281,291
281,292
281,293
282,287
282,288
283,287
283,288
283,289
285,287
285,289
285,293
286,287
286,288
286,293
287,294
287,295
287,296
287,297
287,298
288,294
288,295
288,296
288,297
288,298
289,294
289,297
289,298
290,294
290,295
290,296
290,297
290,298
291,334
292,294
292,295
292,296
292,297
293,294
293,295
293,297
293,298
294,299
294,300
294,301
294,302
295,799
296,300
296,315
297,299
297,300
297,301
297,302
298,299
298,300
298,308
299,303
299,304
299,305
299,306
299,309
300,303
300,304
300,320
301,303
301,304
301,305
301,306
301,307
301,308
301,309
302,303
302,306
303,310
303,311
303,316
304,310
304,311
305,315
306,310
306,311
306,312
306,314
307,310
307,311
307,312
307,320
308,310
308,311
308,312
308,313
308,314
308,315
309,312
309,452
309,660
310,317
310,318
310,319
310,321
311,358
312,707
312,739
312,777
313,320
314,317
315,317
315,318
315,319
315,320
315,321
316,317
316,318
317,322
317,323
317,325
318,323
318,326
318,331
318,332
318,333
319,322
319,323
320,322
320,323
320,324
320,331
321,322
321,323
321,324
321,325
321,326
322,327
322,328
322,329
322,332
322,333
323,327
323,328
324,327
324,340
325,328
325,330
325,331
326,329
327,334
327,335
327,337
327,348
328,337
328,348
329,334
329,335
329,336
329,337
330,334
330,335
331,336
332,334
332,335
333,512
333,542
334,338
334,339
334,341
335,343
335,369
336,340
337,338
337,339
337,342
338,344
338,345
338,349
339,344
339,345
339,346
339,347
339,350
340,344
340,348
341,344
341,345
341,346
341,347
342,428
343,344
343,345
343,350
344,353
345,351
345,374
346,354
346,355
346,356
347,718
348,352
349,351
350,351
350,352
351,357
351,358
352,357
353,357
353,358
353,373
353,374
354,357
354,361
355,357
355,358
355,359
355,360
355,361
356,357
356,358
356,362
357,367
358,363
358,364
359,363
359,365
360,363
360,364
361,363
361,364
361,365
361,379
361,387
362,363
362,366
363,372
363,406
364,880
365,369
365,373
365,375
366,368
366,369
366,374
367,368
367,370
367,371
367,375
368,376
368,377
368,378
368,379
368,380
369,376
370,376
370,407
371,376
371,377
371,378
372,380
372,407
373,376
373,377
374,376
374,377
374,378
374,379
375,440
375,463
376,381
376,382
376,383
377,381
377,382
377,383
377,384
377,385
377,386
377,388
377,389
378,381
378,387
378,389
378,409
379,381
379,382
379,383
379,384
379,386
380,381
380,382
380,383
381,587
381,711
382,396
383,390
383,393
384,390
384,391
384,392
384,395
385,391
385,394
386,390
387,390
387,391
387,392
387,416
388,390
388,391
389,458
390,397
390,398
390,423
391,397
391,398
392,397
392,398
392,399
393,401
394,397
394,402
395,397
396,400
397,403
397,404
397,405
398,403
399,403
399,404
399,406
399,432
400,403
400,408
400,409
400,416
401,403
401,405
402,403
402,404
402,405
402,407
403,410
403,411
403,412
403,414
403,433
404,555
404,579
404,648
405,410
405,413
405,449
406,410
406,411
407,410
407,416
407,449
408,410
408,449
409,410
409,411
409,412
409,415
410,417
410,418
410,419
410,420
410,422
410,454
411,417
411,418
411,419
411,425
411,439
413,417
413,514
414,421
414,424
415,418
415,423
416,417
416,418
417,504
418,426
418,431
419,426
419,427
420,426
420,472
421,426
421,427
422,426
422,427
422,428
422,429
422,430
423,426
423,427
423,432
423,433
423,445
424,426
424,427
424,428
425,430
426,495
427,438
428,434
428,435
428,436
428,437
429,434
429,440
430,434
430,435
430,436
430,437
431,615
432,434
433,439
433,453
433,459
434,447
435,444
435,450
435,459
436,441
436,442
436,443
437,445
437,446
438,441
438,453
439,441
439,442
439,443
439,444
439,448
439,449
440,445
441,450
442,450
442,451
442,452
442,456
443,455
443,457
444,452
444,458
445,450
445,451
445,468
445,469
446,450
446,451
446,452
446,453
447,453
447,459
447,463
448,454
449,450
450,461
451,539
452,655
452,715
452,749
453,535
453,571
454,460
455,471
455,488
456,460
456,461
456,462
456,463
457,460
457,461
457,462
457,463
458,460
458,461
458,462
458,463
459,460
459,461
459,462
460,464
460,465
460,466
460,468
460,469
461,464
461,465
461,466
461,467
462,559
463,464
463,465
463,468
463,474
464,470
464,475
465,470
465,471
465,472
465,480
466,470
466,474
466,497
467,470
467,471
467,472
467,473
467,474
468,470
468,471
469,470
469,471
469,472
469,473
469,474
470,476
470,477
470,478
471,477
471,479
471,481
471,493
472,476
472,477
472,478
472,479
472,491
472,493
473,476
473,477
473,480
474,528
475,476
476,482
476,488
476,494
477,482
477,483
478,482
478,483
479,482
479,483
479,484
479,486
480,482
480,483
480,484
480,485
480,486
481,484
481,487
481,504
482,489
482,595
483,489
483,490
484,489
484,492
484,494
485,489
485,493
486,737
486,898
486,922
486,949
486,951
487,489
487,491
488,688
489,499
489,525
490,495
490,498
490,499
491,495
491,496
492,495
492,497
493,495
493,498
494,540
494,552
495,500
495,501
495,502
495,503
495,505
496,501
496,516
497,500
497,501
497,502
497,503
498,500
498,504
498,505
498,513
499,659
500,506
500,510
500,520
501,506
502,506
502,507
502,508
502,511
502,513
503,506
503,507
503,508
503,509
503,514
503,520
504,506
504,520
505,507
505,512
505,514
506,518
506,519
506,521
507,515
507,516
507,517
507,518
507,519
508,515
508,516
508,517
508,574
509,651
510,754
511,812
511,839
511,851
512,515
512,516
512,520
513,888
513,916
514,517
515,522
516,545
517,522
518,524
518,543
519,522
519,523
519,524
519,525
519,526
519,527
520,522
520,523
520,524
521,523
521,527
521,539
521,540
522,531
522,533
522,535
523,532
523,541
523,566
524,623
525,529
525,534
525,552
526,528
526,529
526,530
527,528
527,529
527,530
528,536
528,537
528,541
528,542
528,543
529,536
529,541
530,837
531,540
531,554
531,595
532,536
532,714
533,538
533,539
533,555
534,585
535,536
535,537
536,703
537,546
538,738
538,824
539,544
540,544
540,545
541,548
542,544
542,547
542,575
543,544
543,545
543,546
543,548
543,555
544,549
545,549
546,549
546,550
546,551
546,552
546,553
546,554
547,550
547,551
547,555
547,563
548,549
548,556
549,557
549,558
550,736
551,557
551,560
552,562
552,577
552,581
553,557
553,566
554,561
554,563
555,568
555,658
556,557
556,558
556,559
557,564
557,565
558,568
558,577
558,618
558,678
559,564
559,567
559,571
560,568
560,570
561,564
561,565
561,569
562,671
563,564
563,565
563,566
563,567
564,576
564,670
565,572
565,579
565,580
566,573
568,597
568,885
569,575
569,727
569,729
570,572
570,578
571,572
571,574
571,577
572,584
573,581
573,668
574,611
574,645
575,581
576,686
576,700
577,614
577,685
577,758
577,767
578,581
578,582
578,583
578,584
579,675
579,689
580,581
580,582
580,585
581,589
581,757
581,761
581,764
582,592
582,600
582,636
582,637
583,586
583,595
584,586
584,587
584,588
584,589
584,591
585,586
585,587
585,588
585,589
585,590
585,593
585,594
586,678
586,757
587,596
587,600
588,596
588,597
588,598
589,704
589,793
590,714
591,597
591,599
592,596
592,598
593,596
593,597
593,601
594,638
594,697
595,734
596,712
596,729
597,825
598,605
598,610
598,633
599,604
599,606
600,602
600,603
600,698
600,726
600,736
601,603
601,607
602,716
602,752
602,801
603,702
604,608
605,794
606,609
607,608
607,610
608,611
608,612
608,615
608,617
609,611
609,612
609,618
610,611
610,613
610,614
610,616
610,642
611,619
612,622
612,624
612,667
613,619
613,620
613,621
614,778
614,781
615,623
615,638
616,620
616,626
617,682
617,755
617,842
618,619
618,625
618,671
619,641
620,628
620,680
621,631
621,678
622,627
622,634
622,674
623,627
623,629
624,627
625,627
625,680
626,627
626,628
626,630
627,632
628,799
629,633
629,636
629,637
630,635
631,634
631,638
632,639
632,640
632,641
632,645
633,639
633,642
633,664
633,666
634,643
634,644
635,639
635,640
635,644
636,811
636,906
637,905
638,699
639,683
639,739
639,757
640,646
640,652
641,646
642,650
642,653
643,646
643,647
643,648
644,649
644,651
645,647
645,649
646,659
646,660
646,682
646,684
647,653
647,654
647,655
647,709
647,725
648,653
648,698
648,708
649,655
649,714
650,656
650,658
651,653
651,654
651,657
652,770
652,811
653,808
653,967
654,661
654,729
655,682
655,734
656,661
656,667
656,678
657,662
657,663
657,664
658,665
659,666
660,661
660,708
661,718
662,671
663,775
663,866
664,670
664,691
665,668
665,669
665,670
665,671
665,672
665,673
665,674
666,668
666,669
666,670
666,690
667,668
667,669
667,670
667,671
667,674
668,683
669,675
669,676
669,681
670,677
670,679
670,701
671,675
671,679
671,680
671,682
671,684
672,678
672,689
673,675
674,675
674,676
675,685
675,686
676,833
676,861
677,689
678,685
678,738
679,686
679,688
680,690
680,766
681,685
681,691
681,842
682,825
682,857
682,861
682,909
683,687
684,685
684,686
684,711
685,693
685,803
686,692
686,693
686,698
687,697
688,694
688,695
689,696
689,735
689,764
690,788
690,812
691,782
691,795
691,845
692,709
692,720
693,739
693,833
694,702
694,703
695,699
695,743
696,698
696,744
697,698
697,700
697,701
697,765
698,704
698,705
698,706
698,758
699,708
699,730
700,705
700,745
701,704
701,795
702,783
702,815
703,707
703,708
703,709
704,783
704,840
705,710
705,713
706,922
707,711
707,818
708,710
708,711
709,712
710,715
710,716
711,719
711,720
711,778
712,717
712,718
712,722
713,714
714,725
715,722
715,724
716,841
716,869
717,761
717,857
717,912
718,726
718,727
719,721
719,723
719,791
720,813
720,815
720,828
720,848
721,800
721,808
721,914
722,762
723,729
723,775
723,783
723,803
724,754
725,728
725,771
726,739
727,728
727,730
728,731
728,734
728,803
729,731
729,917
729,941
729,958
730,732
730,733
730,735
731,741
732,736
732,742
733,737
733,739
733,786
733,839
733,842
734,738
734,746
735,736
735,740
736,744
736,746
736,747
737,852
737,985
738,743
738,782
739,745
740,781
741,801
742,899
743,748
743,821
743,840
744,748
744,753
745,749
745,751
745,752
745,781
746,865
747,750
747,792
748,755
748,784
749,756
749,780
750,757
751,756
751,813
752,759
752,878
753,754
753,758
753,812
754,760
754,762
754,763
755,766
755,796
755,813
756,760
756,761
756,764
756,772
756,787
756,840
757,765
758,901
759,760
759,761
759,909
761,934
761,935
761,962
762,767
763,767
764,771
765,767
765,768
765,769
765,772
765,773
766,770
766,774
766,783
767,777
768,971
769,778
770,775
770,780
770,816
771,775
772,925
773,776
773,779
773,780
773,781
773,854
774,775
775,792
776,784
777,782
777,788
777,790
778,789
779,782
779,783
779,786
779,791
779,825
779,865
780,785
780,787
781,804
781,880
782,793
782,796
783,971
783,987
784,819
784,929
785,794
786,798
786,849
786,917
787,914
788,797
789,795
789,799
789,865
790,800
791,875
792,793
792,917
793,804
793,808
793,814
793,855
793,895
794,806
794,832
795,802
795,805
795,903
796,801
796,804
797,801
797,803
797,807
798,858
799,951
800,935
801,999
802,955
802,958
803,811
803,813
804,897
804,909
804,921
804,927
805,812
805,882
805,888
806,853
807,809
807,810
807,850
809,815
809,818
810,885
810,886
811,819
812,912
813,814
813,816
813,817
813,820
813,831
813,866
814,827
814,829
815,824
815,857
815,860
816,825
817,823
818,821
818,826
819,822
819,828
820,892
821,830
821,834
822,831
822,836
822,837
822,848
823,885
824,833
824,921
825,980
825,994
826,832
829,835
830,839
831,838
831,865
832,838
832,841
832,843
832,844
832,845
832,846
833,840
834,842
834,880
834,890
835,847
835,898
835,941
835,954
836,838
836,895
836,925
838,855
839,852
839,854
839,902
840,849
841,932
841,983
842,989
843,848
843,948
844,849
844,932
845,873
846,851
846,857
846,873
847,850
847,853
847,856
847,892
848,910
848,966
849,997
851,859
851,860
851,863
852,982
853,861
853,864
853,867
854,865
854,874
855,862
856,974
857,858
857,876
858,982
859,887
860,866
860,868
860,871
860,872
861,870
862,873
862,874
862,889
863,871
863,977
865,867
865,869
866,877
866,878
866,880
866,881
867,992
868,996
869,875
869,982
870,876
870,939
872,879
873,891
873,944
873,984
874,882
874,954
874,969
876,938
877,998
878,885
878,887
878,918
879,884
879,886
879,889
879,890
880,883
880,888
881,917
882,890
883,892
883,895
884,891
884,982
885,894
885,896
886,928
886,960
888,899
889,891
889,934
890,893
891,928
892,901
893,898
893,986
894,899
895,900
896,897
897,903
897,905
897,908
898,904
898,998
899,902
899,906
900,908
900,909
901,907
901,927
902,914
905,912
906,912
907,910
907,915
908,916
908,954
908,984
909,911
909,913
912,922
913,918
913,919
913,920
914,917
914,922
915,921
915,961
915,977
917,925
918,992
922,923
922,924
923,929
923,932
923,933
923,934
924,928
924,930
925,926
925,927
925,931
927,936
927,940
928,939
929,939
930,935
930,941
931,968
932,958
933,942
933,983
934,937
934,938
936,945
936,947
936,949
937,948
937,950
937,957
938,944
938,945
938,946
938,959
939,943
941,943
941,985
943,955
943,956
945,952
945,953
946,957
947,951
948,954
948,980
949,964
950,980
951,959
952,960
952,963
953,960
953,975
954,958
955,957
955,961
956,962
959,964
959,967
959,968
959,997
960,966
963,964
963,965
963,972
964,971
964,975
964,983
965,973
966,974
967,969
967,972
968,970
969,977
973,976
974,978
974,979
974,980
974,982
975,981
975,996
976,984
976,985
976,990
977,988
978,987
979,1000
980,983
980,986
980,989
983,999
984,998
985,993
986,997
987,992
987,994
987,999
987,1000
988,991
988,995
990,996

<end>
